(set-info :source  loris-7.ddns.comp.nus.edu.sg/~project/hip/) 
;Variables declarations
(declare-fun bhr_9980 () Int)
(declare-fun Anon_9979 () Int)
(declare-fun nr_9978 () Int)
(declare-fun nc () Int)
(declare-fun bhl_9976 () Int)
(declare-fun Anon_9975 () Int)
(declare-fun Anon_19 () Int)
(declare-fun nl_9974 () Int)
(declare-fun nb () Int)
(declare-fun r_9977 () Int)
(declare-fun l_9973 () Int)
(declare-fun v_9972 () Int)
(declare-fun nl_9902 () Int)
(declare-fun bhl_9903 () Int)
(declare-fun bhr_9946 () Int)
(declare-fun Anon_9945 () Int)
(declare-fun nr_9944 () Int)
(declare-fun bhl_9942 () Int)
(declare-fun Anon_9941 () Int)
(declare-fun nl_9940 () Int)
(declare-fun r_9943 () Int)
(declare-fun r_9859 () Int)
(declare-fun l_9939 () Int)
(declare-fun l_9856 () Int)
(declare-fun v_9938 () Int)
(declare-fun v_9855 () Int)
(declare-fun res () Int)
(declare-fun v_node_147_4593_primed () Int)
(declare-fun v_int_145_9894 () Int)
(declare-fun v_int_145_9893 () Int)
(declare-fun color_144_9881 () Int)
(declare-fun flted_12_9854 () Int)
(declare-fun flted_12_9853 () Int)
(declare-fun flted_12_9852 () Int)
(declare-fun flted_136_9865 () Int)
(declare-fun na () Int)
(declare-fun nr_9860 () Int)
(declare-fun nl_9857 () Int)
(declare-fun bhl_9858 () Int)
(declare-fun bhr_9861 () Int)
(declare-fun a () Int)
(declare-fun b_primed () Int)
(declare-fun b () Int)
(declare-fun c_primed () Int)
(declare-fun c () Int)
(declare-fun color_primed () Int)
(declare-fun flted_136_9864 () Int)
(declare-fun color () Int)
(declare-fun ha_9862 () Int)
(declare-fun ha_9863 () Int)
(declare-fun ha () Int)
(declare-fun v_int_144_9892 () Int)
(declare-fun v_9900 () Int)
(declare-fun v_int_147_9895 () Int)
(declare-fun l_9901 () Int)
(declare-fun a_primed () Int)
(declare-fun r_9904 () Int)
(declare-fun tmp_9896 () Int)
;Relations declarations
;Axioms assertions
;Antecedent
(assert (= bhr_9980 ha_9863))
(assert (= Anon_9979 flted_136_9864))
(assert (= nr_9978 nc))
(assert (= bhl_9976 ha_9862))
(assert (= Anon_9975 Anon_19))
(assert (= nl_9974 nb))
(assert (= r_9977 c_primed))
(assert (= l_9973 b_primed))
(assert (= v_9972 v_int_145_9893))
(assert (= nl_9902 (+ (+ nr_9944 1) nl_9940)))
(assert (= bhl_9903 (+ bhl_9942 1)))
(assert (= bhl_9942 bhr_9946))
(assert (= bhr_9946 bhr_9861))
(assert (= Anon_9945 flted_12_9852))
(assert (= nr_9944 nr_9860))
(assert (= bhl_9942 bhl_9858))
(assert (= Anon_9941 flted_12_9853))
(assert (= nl_9940 nl_9857))
(assert (= r_9943 r_9859))
(assert (= l_9939 l_9856))
(assert (= v_9938 v_9855))
(assert (= res v_node_147_4593_primed))
(assert (= v_int_147_9895 0))
(assert (= v_int_145_9894 0))
(assert (= v_int_145_9893 0))
(assert (= color_144_9881 flted_12_9854))
(assert (= flted_12_9854 1))
(assert (= flted_12_9853 0))
(assert (= flted_12_9852 0))
(assert (= flted_136_9865 1))
(assert (= na (+ (+ nr_9860 1) nl_9857)))
(assert (= bhl_9858 ha))
(assert (= bhr_9861 ha))
(assert (= a_primed a))
(assert (= b_primed b))
(assert (= c_primed c))
(assert (= color_primed color))
(assert (= flted_136_9864 0))
(assert (= color 0))
(assert (= ha_9862 ha))
(assert (= ha_9863 ha))
(assert (= v_int_144_9892 0))
(assert (= v_9900 v_int_147_9895))
(assert (= l_9901 a_primed))
(assert (= r_9904 tmp_9896))
;Negation of Consequence
(assert (not false))
(check-sat)